NAME : X-n125-k30.55539.tour
COMMENT : Length = 55539
COMMENT : Found by LKH [Keld Helsgaun] Fri Feb  9 19:15:34 2018
TYPE : TOUR
DIMENSION : 154
TOUR_SECTION
1
79
125
3
35
7
71
60
29
14
142
76
121
141
124
43
82
17
44
107
152
18
16
51
117
67
24
139
113
100
127
68
33
11
149
49
58
101
143
46
19
150
52
106
90
89
116
145
53
45
98
15
50
25
129
13
38
133
61
91
103
138
6
34
114
137
39
97
130
9
40
54
85
151
62
84
123
134
78
8
42
108
5
144
22
92
55
122
153
73
99
70
140
96
95
119
110
37
56
31
86
63
146
65
102
59
81
66
41
23
48
69
26
135
4
32
131
36
104
128
83
57
126
94
27
154
118
80
64
47
2
28
109
132
87
112
136
10
20
12
115
88
93
75
147
74
111
77
148
21
30
105
72
120
-1
EOF
